c this is nonogram instance
p cnf 680 1355
1 2 0
3 0
4 5 0
6 7 0
8 9 0
10 0
11 0
12 13 0
14 15 0
16 0
17 18 0
19 20 0
21 22 23 24 0
25 26 0
27 28 29 30 31 0
32 33 0
34 35 0
36 37 0
38 39 0
40 0
41 0
42 43 44 45 46 47 0
48 0
49 50 0
51 52 0
53 54 55 56 0
57 0
58 59 60 61 62 0
63 64 65 66 0
67 68 69 70 71 72 0
73 74 0
75 0
76 77 78 79 80 81 0
82 83 84 85 86 0
87 88 0
89 0
90 91 92 93 0
94 0
95 96 97 98 0
99 100 0
101 102 0
103 104 0
105 106 0
107 108 0
109 0
110 0
111 112 113 114 115 0
116 117 0
118 0
119 120 121 122 0
123 0
124 125 126 127 0
128 129 0
130 131 132 133 134 135 0
136 137 138 139 140 0
141 0
142 143 144 145 146 147 0
148 149 150 151 152 153 0
154 155 156 157 158 0
159 0
160 0
161 162 163 164 165 166 0
167 168 169 170 171 172 0
173 174 0
175 176 0
177 178 0
179 180 181 182 0
183 184 185 186 0
187 188 0
-187 -188
-8 -9
-103 -104
-87 -88
-25 -26
-4 -5
-17 -18
-36 -37
-99 -100
-14 -15
-1 -2
-173 -174
-128 -129
-101 -102
-19 -20
-175 -176
-130 -131
-130 -132
-130 -133
-130 -134
-130 -135
-131 -132
-131 -133
-131 -134
-131 -135
-132 -133
-132 -134
-132 -135
-133 -134
-133 -135
-134 -135
-42 -43
-42 -44
-42 -45
-42 -46
-42 -47
-43 -44
-43 -45
-43 -46
-43 -47
-44 -45
-44 -46
-44 -47
-45 -46
-45 -47
-46 -47
-161 -162
-161 -163
-161 -164
-161 -165
-161 -166
-162 -163
-162 -164
-162 -165
-162 -166
-163 -164
-163 -165
-163 -166
-164 -165
-164 -166
-165 -166
-148 -149
-148 -150
-148 -151
-148 -152
-148 -153
-149 -150
-149 -151
-149 -152
-149 -153
-150 -151
-150 -152
-150 -153
-151 -152
-151 -153
-152 -153
-154 -155
-154 -156
-154 -157
-154 -158
-155 -156
-155 -157
-155 -158
-156 -157
-156 -158
-157 -158
-27 -28
-27 -29
-27 -30
-27 -31
-28 -29
-28 -30
-28 -31
-29 -30
-29 -31
-30 -31
-58 -59
-58 -60
-58 -61
-58 -62
-59 -60
-59 -61
-59 -62
-60 -61
-60 -62
-61 -62
-95 -96
-95 -97
-95 -98
-96 -97
-96 -98
-97 -98
-63 -64
-63 -65
-63 -66
-64 -65
-64 -66
-65 -66
-12 -13
-116 -117
-32 -33
-90 -91
-90 -92
-90 -93
-91 -92
-91 -93
-92 -93
-177 -178
-38 -39
-107 -108
-49 -50
-105 -106
-51 -52
-73 -74
-119 -120
-119 -121
-119 -122
-120 -121
-120 -122
-121 -122
-179 -180
-179 -181
-179 -182
-180 -181
-180 -182
-181 -182
-21 -22
-21 -23
-21 -24
-22 -23
-22 -24
-23 -24
-82 -83
-82 -84
-82 -85
-82 -86
-83 -84
-83 -85
-83 -86
-84 -85
-84 -86
-85 -86
-34 -35
-136 -137
-136 -138
-136 -139
-136 -140
-137 -138
-137 -139
-137 -140
-138 -139
-138 -140
-139 -140
-6 -7
-111 -112
-111 -113
-111 -114
-111 -115
-112 -113
-112 -114
-112 -115
-113 -114
-113 -115
-114 -115
-183 -184
-183 -185
-183 -186
-184 -185
-184 -186
-185 -186
-53 -54
-53 -55
-53 -56
-54 -55
-54 -56
-55 -56
-124 -125
-124 -126
-124 -127
-125 -126
-125 -127
-126 -127
-167 -168
-167 -169
-167 -170
-167 -171
-167 -172
-168 -169
-168 -170
-168 -171
-168 -172
-169 -170
-169 -171
-169 -172
-170 -171
-170 -172
-171 -172
-67 -68
-67 -69
-67 -70
-67 -71
-67 -72
-68 -69
-68 -70
-68 -71
-68 -72
-69 -70
-69 -71
-69 -72
-70 -71
-70 -72
-71 -72
-142 -143
-142 -144
-142 -145
-142 -146
-142 -147
-143 -144
-143 -145
-143 -146
-143 -147
-144 -145
-144 -146
-144 -147
-145 -146
-145 -147
-146 -147
-76 -77
-76 -78
-76 -79
-76 -80
-76 -81
-77 -78
-77 -79
-77 -80
-77 -81
-78 -79
-78 -80
-78 -81
-79 -80
-79 -81
-80 -81
183 6 124 0
183 6 125 0
183 6 126 0
183 6 127 0
183 7 124 0
183 7 125 0
183 7 126 0
183 7 127 0
184 6 124 0
184 6 125 0
184 6 126 0
184 6 127 0
184 7 124 0
184 7 125 0
184 7 126 0
184 7 127 0
185 6 124 0
185 6 125 0
185 6 126 0
185 6 127 0
185 7 124 0
185 7 125 0
185 7 126 0
185 7 127 0
186 6 124 0
186 6 125 0
186 6 126 0
186 6 127 0
186 7 124 0
186 7 125 0
186 7 126 0
186 7 127 0
161 177 42 0
161 177 43 0
161 177 44 0
161 177 45 0
161 177 46 0
161 177 47 0
161 178 42 0
161 178 43 0
161 178 44 0
161 178 45 0
161 178 46 0
161 178 47 0
162 177 42 0
162 177 43 0
162 177 44 0
162 177 45 0
162 177 46 0
162 177 47 0
162 178 42 0
162 178 43 0
162 178 44 0
162 178 45 0
162 178 46 0
162 178 47 0
163 177 42 0
163 177 43 0
163 177 44 0
163 177 45 0
163 177 46 0
163 177 47 0
163 178 42 0
163 178 43 0
163 178 44 0
163 178 45 0
163 178 46 0
163 178 47 0
164 177 42 0
164 177 43 0
164 177 44 0
164 177 45 0
164 177 46 0
164 177 47 0
164 178 42 0
164 178 43 0
164 178 44 0
164 178 45 0
164 178 46 0
164 178 47 0
165 177 42 0
165 177 43 0
165 177 44 0
165 177 45 0
165 177 46 0
165 177 47 0
165 178 42 0
165 178 43 0
165 178 44 0
165 178 45 0
165 178 46 0
165 178 47 0
166 177 42 0
166 177 43 0
166 177 44 0
166 177 45 0
166 177 46 0
166 177 47 0
166 178 42 0
166 178 43 0
166 178 44 0
166 178 45 0
166 178 46 0
166 178 47 0
63 17 95 0
63 17 96 0
63 17 97 0
63 17 98 0
63 18 95 0
63 18 96 0
63 18 97 0
63 18 98 0
64 17 95 0
64 17 96 0
64 17 97 0
64 17 98 0
64 18 95 0
64 18 96 0
64 18 97 0
64 18 98 0
65 17 95 0
65 17 96 0
65 17 97 0
65 17 98 0
65 18 95 0
65 18 96 0
65 18 97 0
65 18 98 0
66 17 95 0
66 17 96 0
66 17 97 0
66 17 98 0
66 18 95 0
66 18 96 0
66 18 97 0
66 18 98 0
42 101 148 0
42 101 149 0
42 101 150 0
42 101 151 0
42 101 152 0
42 101 153 0
42 102 148 0
42 102 149 0
42 102 150 0
42 102 151 0
42 102 152 0
42 102 153 0
43 101 148 0
43 101 149 0
43 101 150 0
43 101 151 0
43 101 152 0
43 101 153 0
43 102 148 0
43 102 149 0
43 102 150 0
43 102 151 0
43 102 152 0
43 102 153 0
44 101 148 0
44 101 149 0
44 101 150 0
44 101 151 0
44 101 152 0
44 101 153 0
44 102 148 0
44 102 149 0
44 102 150 0
44 102 151 0
44 102 152 0
44 102 153 0
45 101 148 0
45 101 149 0
45 101 150 0
45 101 151 0
45 101 152 0
45 101 153 0
45 102 148 0
45 102 149 0
45 102 150 0
45 102 151 0
45 102 152 0
45 102 153 0
46 101 148 0
46 101 149 0
46 101 150 0
46 101 151 0
46 101 152 0
46 101 153 0
46 102 148 0
46 102 149 0
46 102 150 0
46 102 151 0
46 102 152 0
46 102 153 0
47 101 148 0
47 101 149 0
47 101 150 0
47 101 151 0
47 101 152 0
47 101 153 0
47 102 148 0
47 102 149 0
47 102 150 0
47 102 151 0
47 102 152 0
47 102 153 0
25 12 19 0
25 12 20 0
25 13 19 0
25 13 20 0
26 12 19 0
26 12 20 0
26 13 19 0
26 13 20 0
89 1 63 0
89 1 64 0
89 1 65 0
89 1 66 0
89 2 63 0
89 2 64 0
89 2 65 0
89 2 66 0
90 101 16 0
90 102 16 0
91 101 16 0
91 102 16 0
92 101 16 0
92 102 16 0
93 101 16 0
93 102 16 0
19 99 175 0
19 99 176 0
19 100 175 0
19 100 176 0
20 99 175 0
20 99 176 0
20 100 175 0
20 100 176 0
136 173 111 0
136 173 112 0
136 173 113 0
136 173 114 0
136 173 115 0
136 174 111 0
136 174 112 0
136 174 113 0
136 174 114 0
136 174 115 0
137 173 111 0
137 173 112 0
137 173 113 0
137 173 114 0
137 173 115 0
137 174 111 0
137 174 112 0
137 174 113 0
137 174 114 0
137 174 115 0
138 173 111 0
138 173 112 0
138 173 113 0
138 173 114 0
138 173 115 0
138 174 111 0
138 174 112 0
138 174 113 0
138 174 114 0
138 174 115 0
139 173 111 0
139 173 112 0
139 173 113 0
139 173 114 0
139 173 115 0
139 174 111 0
139 174 112 0
139 174 113 0
139 174 114 0
139 174 115 0
140 173 111 0
140 173 112 0
140 173 113 0
140 173 114 0
140 173 115 0
140 174 111 0
140 174 112 0
140 174 113 0
140 174 114 0
140 174 115 0
111 36 109 0
111 37 109 0
112 36 109 0
112 37 109 0
113 36 109 0
113 37 109 0
114 36 109 0
114 37 109 0
115 36 109 0
115 37 109 0
124 34 41 0
124 35 41 0
125 34 41 0
125 35 41 0
126 34 41 0
126 35 41 0
127 34 41 0
127 35 41 0
82 14 136 0
82 14 137 0
82 14 138 0
82 14 139 0
82 14 140 0
82 15 136 0
82 15 137 0
82 15 138 0
82 15 139 0
82 15 140 0
83 14 136 0
83 14 137 0
83 14 138 0
83 14 139 0
83 14 140 0
83 15 136 0
83 15 137 0
83 15 138 0
83 15 139 0
83 15 140 0
84 14 136 0
84 14 137 0
84 14 138 0
84 14 139 0
84 14 140 0
84 15 136 0
84 15 137 0
84 15 138 0
84 15 139 0
84 15 140 0
85 14 136 0
85 14 137 0
85 14 138 0
85 14 139 0
85 14 140 0
85 15 136 0
85 15 137 0
85 15 138 0
85 15 139 0
85 15 140 0
86 14 136 0
86 14 137 0
86 14 138 0
86 14 139 0
86 14 140 0
86 15 136 0
86 15 137 0
86 15 138 0
86 15 139 0
86 15 140 0
159 51 167 0
159 51 168 0
159 51 169 0
159 51 170 0
159 51 171 0
159 51 172 0
159 52 167 0
159 52 168 0
159 52 169 0
159 52 170 0
159 52 171 0
159 52 172 0
130 36 161 0
130 36 162 0
130 36 163 0
130 36 164 0
130 36 165 0
130 36 166 0
130 37 161 0
130 37 162 0
130 37 163 0
130 37 164 0
130 37 165 0
130 37 166 0
131 36 161 0
131 36 162 0
131 36 163 0
131 36 164 0
131 36 165 0
131 36 166 0
131 37 161 0
131 37 162 0
131 37 163 0
131 37 164 0
131 37 165 0
131 37 166 0
132 36 161 0
132 36 162 0
132 36 163 0
132 36 164 0
132 36 165 0
132 36 166 0
132 37 161 0
132 37 162 0
132 37 163 0
132 37 164 0
132 37 165 0
132 37 166 0
133 36 161 0
133 36 162 0
133 36 163 0
133 36 164 0
133 36 165 0
133 36 166 0
133 37 161 0
133 37 162 0
133 37 163 0
133 37 164 0
133 37 165 0
133 37 166 0
134 36 161 0
134 36 162 0
134 36 163 0
134 36 164 0
134 36 165 0
134 36 166 0
134 37 161 0
134 37 162 0
134 37 163 0
134 37 164 0
134 37 165 0
134 37 166 0
135 36 161 0
135 36 162 0
135 36 163 0
135 36 164 0
135 36 165 0
135 36 166 0
135 37 161 0
135 37 162 0
135 37 163 0
135 37 164 0
135 37 165 0
135 37 166 0
141 51 119 0
141 51 120 0
141 51 121 0
141 51 122 0
141 52 119 0
141 52 120 0
141 52 121 0
141 52 122 0
67 1 76 0
67 1 77 0
67 1 78 0
67 1 79 0
67 1 80 0
67 1 81 0
67 2 76 0
67 2 77 0
67 2 78 0
67 2 79 0
67 2 80 0
67 2 81 0
68 1 76 0
68 1 77 0
68 1 78 0
68 1 79 0
68 1 80 0
68 1 81 0
68 2 76 0
68 2 77 0
68 2 78 0
68 2 79 0
68 2 80 0
68 2 81 0
69 1 76 0
69 1 77 0
69 1 78 0
69 1 79 0
69 1 80 0
69 1 81 0
69 2 76 0
69 2 77 0
69 2 78 0
69 2 79 0
69 2 80 0
69 2 81 0
70 1 76 0
70 1 77 0
70 1 78 0
70 1 79 0
70 1 80 0
70 1 81 0
70 2 76 0
70 2 77 0
70 2 78 0
70 2 79 0
70 2 80 0
70 2 81 0
71 1 76 0
71 1 77 0
71 1 78 0
71 1 79 0
71 1 80 0
71 1 81 0
71 2 76 0
71 2 77 0
71 2 78 0
71 2 79 0
71 2 80 0
71 2 81 0
72 1 76 0
72 1 77 0
72 1 78 0
72 1 79 0
72 1 80 0
72 1 81 0
72 2 76 0
72 2 77 0
72 2 78 0
72 2 79 0
72 2 80 0
72 2 81 0
148 34 11 0
148 35 11 0
149 34 11 0
149 35 11 0
150 34 11 0
150 35 11 0
151 34 11 0
151 35 11 0
152 34 11 0
152 35 11 0
153 34 11 0
153 35 11 0
94 38 4 0
94 38 5 0
94 39 4 0
94 39 5 0
142 107 67 0
142 107 68 0
142 107 69 0
142 107 70 0
142 107 71 0
142 107 72 0
142 108 67 0
142 108 68 0
142 108 69 0
142 108 70 0
142 108 71 0
142 108 72 0
143 107 67 0
143 107 68 0
143 107 69 0
143 107 70 0
143 107 71 0
143 107 72 0
143 108 67 0
143 108 68 0
143 108 69 0
143 108 70 0
143 108 71 0
143 108 72 0
144 107 67 0
144 107 68 0
144 107 69 0
144 107 70 0
144 107 71 0
144 107 72 0
144 108 67 0
144 108 68 0
144 108 69 0
144 108 70 0
144 108 71 0
144 108 72 0
145 107 67 0
145 107 68 0
145 107 69 0
145 107 70 0
145 107 71 0
145 107 72 0
145 108 67 0
145 108 68 0
145 108 69 0
145 108 70 0
145 108 71 0
145 108 72 0
146 107 67 0
146 107 68 0
146 107 69 0
146 107 70 0
146 107 71 0
146 107 72 0
146 108 67 0
146 108 68 0
146 108 69 0
146 108 70 0
146 108 71 0
146 108 72 0
147 107 67 0
147 107 68 0
147 107 69 0
147 107 70 0
147 107 71 0
147 107 72 0
147 108 67 0
147 108 68 0
147 108 69 0
147 108 70 0
147 108 71 0
147 108 72 0
21 49 110 0
21 50 110 0
22 49 110 0
22 50 110 0
23 49 110 0
23 50 110 0
24 49 110 0
24 50 110 0
4 173 25 0
4 173 26 0
4 174 25 0
4 174 26 0
5 173 25 0
5 173 26 0
5 174 25 0
5 174 26 0
167 128 142 0
167 128 143 0
167 128 144 0
167 128 145 0
167 128 146 0
167 128 147 0
167 129 142 0
167 129 143 0
167 129 144 0
167 129 145 0
167 129 146 0
167 129 147 0
168 128 142 0
168 128 143 0
168 128 144 0
168 128 145 0
168 128 146 0
168 128 147 0
168 129 142 0
168 129 143 0
168 129 144 0
168 129 145 0
168 129 146 0
168 129 147 0
169 128 142 0
169 128 143 0
169 128 144 0
169 128 145 0
169 128 146 0
169 128 147 0
169 129 142 0
169 129 143 0
169 129 144 0
169 129 145 0
169 129 146 0
169 129 147 0
170 128 142 0
170 128 143 0
170 128 144 0
170 128 145 0
170 128 146 0
170 128 147 0
170 129 142 0
170 129 143 0
170 129 144 0
170 129 145 0
170 129 146 0
170 129 147 0
171 128 142 0
171 128 143 0
171 128 144 0
171 128 145 0
171 128 146 0
171 128 147 0
171 129 142 0
171 129 143 0
171 129 144 0
171 129 145 0
171 129 146 0
171 129 147 0
172 128 142 0
172 128 143 0
172 128 144 0
172 128 145 0
172 128 146 0
172 128 147 0
172 129 142 0
172 129 143 0
172 129 144 0
172 129 145 0
172 129 146 0
172 129 147 0
95 99 90 0
95 99 91 0
95 99 92 0
95 99 93 0
95 100 90 0
95 100 91 0
95 100 92 0
95 100 93 0
96 99 90 0
96 99 91 0
96 99 92 0
96 99 93 0
96 100 90 0
96 100 91 0
96 100 92 0
96 100 93 0
97 99 90 0
97 99 91 0
97 99 92 0
97 99 93 0
97 100 90 0
97 100 91 0
97 100 92 0
97 100 93 0
98 99 90 0
98 99 91 0
98 99 92 0
98 99 93 0
98 100 90 0
98 100 91 0
98 100 92 0
98 100 93 0
48 49 130 0
48 49 131 0
48 49 132 0
48 49 133 0
48 49 134 0
48 49 135 0
48 50 130 0
48 50 131 0
48 50 132 0
48 50 133 0
48 50 134 0
48 50 135 0
76 32 160 0
76 33 160 0
77 32 160 0
77 33 160 0
78 32 160 0
78 33 160 0
79 32 160 0
79 33 160 0
80 32 160 0
80 33 160 0
81 32 160 0
81 33 160 0
187 105 87 0
187 105 88 0
187 106 87 0
187 106 88 0
188 105 87 0
188 105 88 0
188 106 87 0
188 106 88 0
57 107 154 0
57 107 155 0
57 107 156 0
57 107 157 0
57 107 158 0
57 108 154 0
57 108 155 0
57 108 156 0
57 108 157 0
57 108 158 0
53 116 183 0
53 116 184 0
53 116 185 0
53 116 186 0
53 117 183 0
53 117 184 0
53 117 185 0
53 117 186 0
54 116 183 0
54 116 184 0
54 116 185 0
54 116 186 0
54 117 183 0
54 117 184 0
54 117 185 0
54 117 186 0
55 116 183 0
55 116 184 0
55 116 185 0
55 116 186 0
55 117 183 0
55 117 184 0
55 117 185 0
55 117 186 0
56 116 183 0
56 116 184 0
56 116 185 0
56 116 186 0
56 117 183 0
56 117 184 0
56 117 185 0
56 117 186 0
58 12 27 0
58 12 28 0
58 12 29 0
58 12 30 0
58 12 31 0
58 13 27 0
58 13 28 0
58 13 29 0
58 13 30 0
58 13 31 0
59 12 27 0
59 12 28 0
59 12 29 0
59 12 30 0
59 12 31 0
59 13 27 0
59 13 28 0
59 13 29 0
59 13 30 0
59 13 31 0
60 12 27 0
60 12 28 0
60 12 29 0
60 12 30 0
60 12 31 0
60 13 27 0
60 13 28 0
60 13 29 0
60 13 30 0
60 13 31 0
61 12 27 0
61 12 28 0
61 12 29 0
61 12 30 0
61 12 31 0
61 13 27 0
61 13 28 0
61 13 29 0
61 13 30 0
61 13 31 0
62 12 27 0
62 12 28 0
62 12 29 0
62 12 30 0
62 12 31 0
62 13 27 0
62 13 28 0
62 13 29 0
62 13 30 0
62 13 31 0
10 73 8 0
10 73 9 0
10 74 8 0
10 74 9 0
75 128 82 0
75 128 83 0
75 128 84 0
75 128 85 0
75 128 86 0
75 129 82 0
75 129 83 0
75 129 84 0
75 129 85 0
75 129 86 0
119 73 179 0
119 73 180 0
119 73 181 0
119 73 182 0
119 74 179 0
119 74 180 0
119 74 181 0
119 74 182 0
120 73 179 0
120 73 180 0
120 73 181 0
120 73 182 0
120 74 179 0
120 74 180 0
120 74 181 0
120 74 182 0
121 73 179 0
121 73 180 0
121 73 181 0
121 73 182 0
121 74 179 0
121 74 180 0
121 74 181 0
121 74 182 0
122 73 179 0
122 73 180 0
122 73 181 0
122 73 182 0
122 74 179 0
122 74 180 0
122 74 181 0
122 74 182 0
27 177 40 0
27 178 40 0
28 177 40 0
28 178 40 0
29 177 40 0
29 178 40 0
30 177 40 0
30 178 40 0
31 177 40 0
31 178 40 0
154 105 58 0
154 105 59 0
154 105 60 0
154 105 61 0
154 105 62 0
154 106 58 0
154 106 59 0
154 106 60 0
154 106 61 0
154 106 62 0
155 105 58 0
155 105 59 0
155 105 60 0
155 105 61 0
155 105 62 0
155 106 58 0
155 106 59 0
155 106 60 0
155 106 61 0
155 106 62 0
156 105 58 0
156 105 59 0
156 105 60 0
156 105 61 0
156 105 62 0
156 106 58 0
156 106 59 0
156 106 60 0
156 106 61 0
156 106 62 0
157 105 58 0
157 105 59 0
157 105 60 0
157 105 61 0
157 105 62 0
157 106 58 0
157 106 59 0
157 106 60 0
157 106 61 0
157 106 62 0
158 105 58 0
158 105 59 0
158 105 60 0
158 105 61 0
158 105 62 0
158 106 58 0
158 106 59 0
158 106 60 0
158 106 61 0
158 106 62 0
87 17 103 0
87 17 104 0
87 18 103 0
87 18 104 0
88 17 103 0
88 17 104 0
88 18 103 0
88 18 104 0
103 116 118 0
103 117 118 0
104 116 118 0
104 117 118 0
175 6 3 0
175 7 3 0
176 6 3 0
176 7 3 0
8 14 187 0
8 14 188 0
8 15 187 0
8 15 188 0
9 14 187 0
9 14 188 0
9 15 187 0
9 15 188 0
179 38 21 0
179 38 22 0
179 38 23 0
179 38 24 0
179 39 21 0
179 39 22 0
179 39 23 0
179 39 24 0
180 38 21 0
180 38 22 0
180 38 23 0
180 38 24 0
180 39 21 0
180 39 22 0
180 39 23 0
180 39 24 0
181 38 21 0
181 38 22 0
181 38 23 0
181 38 24 0
181 39 21 0
181 39 22 0
181 39 23 0
181 39 24 0
182 38 21 0
182 38 22 0
182 38 23 0
182 38 24 0
182 39 21 0
182 39 22 0
182 39 23 0
182 39 24 0
123 32 53 0
123 32 54 0
123 32 55 0
123 32 56 0
123 33 53 0
123 33 54 0
123 33 55 0
123 33 56 0